c instance by G2
c solution = 101001111
c Known solution cost is 516 
p cnf 9 30
w 32 82 91 89 64 42 11 81 24
1 -3 -9 0
-5 -7 6 0
3 7 -6 0
-9 -5 -1 0
-2 5 8 0
5 4 6 0
1 -5 -3 0
4 9 -1 0
-3 -7 -2 0
5 6 -1 0
4 7 -9 0
3 -7 2 0
-7 1 9 0
5 7 -1 0
8 5 4 0
3 -6 -5 0
-4 7 3 0
-1 5 8 0
6 5 8 0
-7 -4 -9 0
5 1 3 0
-3 9 -5 0
-3 -1 9 0
4 1 2 0
5 -6 -2 0
2 6 5 0
9 -1 3 0
6 1 -4 0
8 3 4 0
-6 -5 -3 0
